c WARNING: for repeatability, setting FPU to use double precision
d VARIABLES            121348       
d CONSTRAINTS          540114       
c ============================[ Problem Statistics ]=============================
c |                                                                             |
c |  Number of variables:        121348                                         |
c |  Number of clauses:          540114                                         |
c |  Parse time:                   0.08 s                                       |
c |                                                                             |
c ============================[ Search Statistics ]==============================
c | Conflicts |          ORIGINAL         |          LEARNT          | Progress |
c |           |    Vars  Clauses Literals |    Limit  Clauses Lit/Cl |          |
c ===============================================================================
c |       100 |  103071   488030  1183944 |   178944      100     12 | 15.062 % |
c |       250 |  103071   488030  1183944 |   196838      250     42 | 15.062 % |
c |       475 |  103071   488030  1183944 |   216522      475     89 | 15.062 % |
c |       812 |  103071   488030  1183944 |   238174      812     77 | 15.062 % |
c |      1318 |  103071   488030  1183944 |   261992     1318    125 | 15.062 % |
c |      2077 |  103071   488030  1183944 |   288191     2077    117 | 15.062 % |
c |      3216 |  103071   488030  1183944 |   317010     3216    147 | 15.062 % |
c |      4924 |  103071   488030  1183944 |   348711     4924    136 | 15.062 % |
c |      7486 |  103071   488030  1183944 |   383583     7486    147 | 15.062 % |
c |     11330 |  103071   488030  1183944 |   421941    11330    143 | 15.062 % |
c |     17096 |  103071   488030  1183944 |   464135    17096    134 | 15.062 % |
c |     25745 |  103070   488015  1183906 |   510549    25744    136 | 15.062 % |
c |     38719 |  103068   487986  1183833 |   561603    38645    131 | 15.064 % |
c |     58180 |  103062   487902  1183623 |   617764    58035    179 | 15.069 % |
c ===============================================================================
c restarts              : 253
c conflicts             : 82555          (2511 /sec)
c decisions             : 420435         (0.00 % random) (12786 /sec)
c propagations          : 158619570      (4823895 /sec)
c conflict literals     : 13064993       (14.30 % deleted)
d RESTARTS             253
d FAILURES             82555        
d NODES                420435       
d BACKTRACKS           420435       
d PROPAGATIONS         158619570    
d NOGOODSIZE           158.26 
d MEMORY               117.00 
d TIME                 32.8821 

s UNSATISFIABLE
